5
4
0 887 2778 6916
7794 0 8336 5387
493 6650 0 1422
2363 28 8691 0
4
0 2000 6000 7000
3000 0 8000 3000
5000 9000 0 1000
8000 4000 1000 0
2
0 111
112 0
3
0 1000 5000
5000 0 1000
1000 5000 0
3
0 1000 5000
5000 0 1000
1000  5000  0
